50
21707

537 961
631 75
15 342
38 55
625 251
623 910
313 937
332 197
697 574
651 273
387 11
768 544
120 81
325 832
107 434
420 614
827 143
622 822
735 728
803 800
108 462
56 592
131 677
178 770
570 606
383 904
588 978
281 233
804 245
394 841
914 657
813 791
742 536
722 807
488 612
668 387
846 610
241 929
790 344
152 619
113 730
597 157
506 357
66 276
850 286
772 726
148 201
381 465
211 656
789 947
